************************************************************************
file with basedata            : cm227_.bas
initial value random generator: 1226199965
************************************************************************
projects                      :  1
jobs (incl. supersource/sink ):  18
horizon                       :  112
RESOURCES
  - renewable                 :  2   R
  - nonrenewable              :  2   N
  - doubly constrained        :  0   D
************************************************************************
PROJECT INFORMATION:
pronr.  #jobs rel.date duedate tardcost  MPM-Time
    1     16      0       22       10       22
************************************************************************
PRECEDENCE RELATIONS:
jobnr.    #modes  #successors   successors
   1        1          3           2   3   4
   2        2          3           5   6  12
   3        2          3           8   9  17
   4        2          3           7  12  13
   5        2          3          10  11  13
   6        2          1           8
   7        2          2           9  11
   8        2          2          11  15
   9        2          2          10  16
  10        2          1          15
  11        2          1          14
  12        2          3          14  15  17
  13        2          2          16  17
  14        2          1          16
  15        2          1          18
  16        2          1          18
  17        2          1          18
  18        1          0        
************************************************************************
REQUESTS/DURATIONS:
jobnr. mode duration  R 1  R 2  N 1  N 2
------------------------------------------------------------------------
  1      1     0       0    0    0    0
  2      1     1       0    6    0    9
         2     1       6    0    2    0
  3      1     3       7    0    0    4
         2    10       5    0    2    0
  4      1     1       0   10    8    0
         2     8       0   10    0   10
  5      1     3      10    0    0    5
         2     7       6    0    0    5
  6      1     3       4    0    0    5
         2     4       3    0    2    0
  7      1     3      10    0    0    6
         2     9       9    0    6    0
  8      1     7       0    4    7    0
         2     9       8    0    5    0
  9      1     4       2    0    6    0
         2     9       0    4    0    9
 10      1     6       0    9    3    0
         2     7       5    0    0    3
 11      1     2       0    7    4    0
         2     6       0    3    4    0
 12      1     4       0   10    6    0
         2     5       0    7    0    5
 13      1     6       0    3    0    9
         2     9       3    0    0    9
 14      1     5       8    0    8    0
         2     6       0    7    7    0
 15      1     1       0   10    9    0
         2     3       0   10    0    3
 16      1     4       0    8    8    0
         2     9       6    0    8    0
 17      1     3       8    0    0    8
         2    10       0    7    0    5
 18      1     0       0    0    0    0
************************************************************************
RESOURCEAVAILABILITIES:
  R 1  R 2  N 1  N 2
   26   21   71   76
************************************************************************
